(set-info :Origin "This instance was generated by: BanditFuzz-- an RL fuzzer for SMT solvers" )
(set-info :Author "Joe Scott, Fed Mora, Vijay Ganesh" )
(set-info :Contact "Joe Scott, joseph.scott@uwaterloo.ca")
(set-logic QF_BV)
(declare-const bool_0 Bool)
(declare-const bool_1 Bool)
(declare-const bool_2 Bool)
(declare-const bool_3 Bool)
(declare-const bool_4 Bool)
(declare-const bv_0 (_ BitVec 32))
(declare-const bv_1 (_ BitVec 32))
(declare-const bv_2 (_ BitVec 32))
(declare-const bv_3 (_ BitVec 32))
(declare-const bv_4 (_ BitVec 32))
(assert (bvsgt (bvlshr (bvashr bv_2 bv_3) (bvurem bv_4 #xbd06e4c0 )) (bvudiv (bvurem bv_2 bv_1) (bvurem #x3972a802  bv_1))))
(assert (bvugt (bvor (bvsmod bv_2 #xd6d21911 ) (bvxor #x1072598d  #x5aeb066c )) (bvnand (bvmul #x7b7004b4  #x12653cb0 ) (bvand bv_4 bv_1))))
(assert (bvule (bvshl (bvashr #x8a0a264c  #x6ad9240f ) (bvnand bv_3 #x9225ca07 )) (bvurem (bvshl bv_4 bv_3) (bvor bv_4 bv_4))))
(assert (bvule (bvand (bvadd #x631a9190  #xbc0bd768 ) (bvnor #x7a2f7943  bv_0)) (bvxnor (bvmul bv_3 bv_1) (bvadd #xa42bdb29  bv_1))))
(assert (bvugt (bvsmod (bvsdiv #x0847c279  #x05fda780 ) (bvadd bv_1 #xbc827d02 )) (bvnor (bvnand bv_1 bv_0) (bvand bv_0 bv_4))))
(check-sat)
(exit)
